100 100
57 71 1
34 87 1
52 36 1
30 8 1
27 26 1
29 44 1
60 51 1
75 71 1
63 57 1
45 100 1
79 21 1
52 77 1
86 55 1
39 78 1
97 2 1
83 15 1
54 40 1
98 33 1
36 82 1
26 9 1
54 70 1
45 54 1
53 83 1
67 12 1
9 32 1
36 63 1
35 61 1
30 15 1
75 48 1
60 15 1
6 5 1
70 40 1
40 76 1
38 1 1
20 37 1
75 42 1
26 2 1
27 41 1
67 13 1
69 9 1
89 50 1
15 91 1
69 22 1
7 65 1
18 75 1
24 41 1
81 85 1
77 64 1
35 65 1
11 12 1
92 59 1
2 96 1
96 44 1
63 60 1
25 32 1
38 83 1
90 67 1
4 74 1
35 27 1
73 80 1
38 22 1
88 77 1
11 98 1
29 76 1
97 32 1
5 23 1
75 36 1
62 94 1
55 53 1
77 1 1
83 61 1
61 89 1
35 73 1
59 35 1
23 31 1
48 50 1
91 14 1
40 78 1
18 33 1
79 99 1
14 32 1
43 21 1
23 89 1
43 91 1
24 16 1
23 86 1
28 56 1
61 17 1
79 88 1
69 27 1
54 23 1
90 97 1
66 4 1
3 35 1
57 11 1
18 87 1
7 53 1
81 31 1
27 76 1
68 77 1
100 100 
100 100 
100 100 
100 100 
100 100 
100 100 
100 100 
100 100 
100 100 
100 100 
100 100 
100 100 
100 100 
100 100 
100 100 
100 100 
100 100 
100 100 
100 100 
100 100 
100 100 
100 100 
100 100 
100 100 
100 100 
100 100 
100 100 
100 100 
100 100 
100 100 
100 100 
100 100 
100 100 
100 100 
100 100 
100 100 
100 100 
100 100 
100 100 
100 100 
100 100 
100 100 
100 100 
100 100 
100 100 
100 100 
100 100 
100 100 
100 100 
100 100 
100 100 
100 100 
100 100 
100 100 
100 100 
100 100 
100 100 
100 100 
100 100 
100 100 
100 100 
100 100 
100 100 
100 100 
100 100 
100 100 
100 100 
100 100 
100 100 
100 100 
100 100 
100 100 
100 100 
100 100 
100 100 
100 100 
100 100 
100 100 
100 100 
100 100 
100 100 
100 100 
100 100 
100 100 
100 100 
100 100 
100 100 
100 100 
100 100 
100 100 
100 100 
100 100 
100 100 
100 100 
100 100 
100 100 
100 100 
100 100 
100 100 
100 100 
